DIMENSION: 22
EDGE_WEIGHT_TYPE: EXPLICIT
EDGE_WEIGHT_FORMAT: FULL_MATRIX
EDGE_WEIGHT_SECTION:
32767 66 32767 32767 32767 35 32767 88 32767 32767 67 95 32767 32767 32767 32767 32767 32767 32767 86 95 32767 
66 32767 32767 32767 32767 32767 70 66 32767 32767 32767 32767 36 52 32767 47 32767 32767 32767 32767 32767 32767 
32767 32767 32767 32767 32767 32767 32767 91 32767 32767 41 32767 32767 32767 32767 32767 32767 32767 63 32767 67 32767 
32767 32767 32767 32767 32767 32767 36 78 32767 32767 32767 32767 72 32767 32767 32767 32767 32767 32767 32767 38 67 
32767 32767 32767 32767 32767 32767 89 48 20 71 32767 32767 38 32767 89 32767 32767 32767 32767 96 32767 32767 
35 32767 32767 32767 32767 32767 86 60 32767 26 32767 32767 32767 32767 32767 85 8 32767 32767 57 32767 98 
32767 70 32767 36 89 86 32767 32767 32767 96 32767 32767 17 32767 32767 32767 32767 32767 32767 32767 32767 84 
88 66 91 78 48 60 32767 32767 32767 21 32767 81 37 32767 32767 32767 32767 68 32767 32767 46 38 
32767 32767 32767 32767 20 32767 32767 32767 32767 43 32767 32767 32767 71 32767 27 32767 32767 32767 32767 94 7 
32767 32767 32767 32767 71 26 96 21 43 32767 32767 31 98 32767 2 98 9 13 80 39 54 32767 
67 32767 41 32767 32767 32767 32767 32767 32767 32767 32767 32767 32767 26 32767 32767 63 32767 44 32767 32767 43 
95 32767 32767 32767 32767 32767 32767 81 32767 31 32767 32767 32767 96 90 32767 32767 32767 32767 32767 89 32767 
32767 36 32767 72 38 32767 17 37 32767 98 32767 32767 32767 32767 32767 2 32767 28 100 32767 32767 32767 
32767 52 32767 32767 32767 32767 32767 32767 71 32767 26 96 32767 32767 53 32767 32767 32767 21 32767 32767 32767 
32767 32767 32767 32767 89 32767 32767 32767 32767 2 32767 90 32767 53 32767 28 17 32767 32767 32767 32767 89 
32767 47 32767 32767 32767 85 32767 32767 27 98 32767 32767 2 32767 28 32767 79 47 70 32767 32767 32767 
32767 32767 32767 32767 32767 8 32767 32767 32767 9 63 32767 32767 32767 17 79 32767 74 32767 32767 32767 32767 
32767 32767 32767 32767 32767 32767 32767 68 32767 13 32767 32767 28 32767 32767 47 74 32767 32767 32767 32767 32767 
32767 32767 63 32767 32767 32767 32767 32767 32767 80 44 32767 100 21 32767 70 32767 32767 32767 32767 32767 32767 
86 32767 32767 32767 96 57 32767 32767 32767 39 32767 32767 32767 32767 32767 32767 32767 32767 32767 32767 32767 32767 
95 32767 67 38 32767 32767 32767 46 94 54 32767 89 32767 32767 32767 32767 32767 32767 32767 32767 32767 32767 
32767 32767 32767 67 32767 98 84 38 7 32767 43 32767 32767 32767 89 32767 32767 32767 32767 32767 32767 32767 
EOF